! pbe def2-sv(p) def2/J RI DEFGRID1 loosescf d4 GCP(DFT/SV(P)) printgap
%output
    printlevel normal
end
* xyz 0 1
C -1.5622867017 0.9173168328 0.2382226553
C -1.3286953399 -0.5145899266 -0.2253999949
C 0.0813734215 -1.0056610168 -0.3888166414
C 1.2659165779 -0.4701436475 -0.1328857695
C 1.6348496686 0.862565967 0.4374636886
H -1.0264053941 1.6216795771 -0.3920743085
H -1.2553420687 1.0520507099 1.2720756186
H -2.6252793262 1.1459017656 0.1759656067
H -1.8352946641 -1.1975521408 0.4663135713
H -1.8169728932 -0.6458946573 -1.1979824314
H 0.0899918889 -2.005595957 -0.8121758058
H 2.1320004471 -1.0717825862 -0.3872577418
H 0.8393396963 1.3078673202 1.0208458807
H 1.8997789594 1.5487131905 -0.3686933531
H 2.5118709712 0.7532516545 1.0740379483
*
