! r2scan-3c def2/J RI DEFGRID2 scfconv6 printgap
%output
    printlevel normal
end
* xyz 0 1
C 2.5251120586 2.553822377 1.2688807625
C 2.0408880419 1.7330478597 0.0756372013
C 2.9549495042 0.5120917361 -0.2007620048
C 2.010376246 -0.6449060437 -0.0767458338
C 2.2019545915 -1.9965275005 -0.2540362745
C 1.1214491213 -2.85085269 -0.0792010822
C -0.1224646496 -2.3534516213 0.2662738314
C -0.3180480355 -0.9918475927 0.4545240639
C 0.7599163837 -0.1369144314 0.2722792658
O 0.7357589846 1.2049423086 0.4044556334
O -1.5629595593 -0.489943948 0.8295784227
C -2.4606261293 -0.3055396953 -0.1775287838
O -2.2642474792 -0.5782798344 -1.3327968966
N -3.6011140428 0.2105740189 0.3276653145
C -4.7313570304 0.5429729664 -0.5002440759
C 1.8829996944 2.6105084278 -1.165409374
H 2.5973076363 1.9220345982 2.1512966846
H 3.500315512 2.9837935024 1.0561318379
H 1.8207972866 3.3551910148 1.4759336169
H 3.400610896 0.5651039609 -1.1950802841
H 3.7636942388 0.4451651446 0.5298698269
H 3.1718087005 -2.3820209537 -0.529439752
H 1.2481740527 -3.9127448647 -0.2210283817
H -0.9646172394 -3.0165740304 0.3896091046
H -3.6253127508 0.4291450213 1.3101735391
H -4.9261573253 1.6175089138 -0.485104453
H -5.6240555954 0.0120066994 -0.1640708771
H -4.4897547001 0.2360985038 -1.5163603722
H 1.5029693754 2.0150521956 -1.9925734935
H 2.839634619 3.0443128043 -1.4446998927
H 1.1747270225 3.4101030544 -0.9641176303
*
