! pbe def2-sv(p) def2/J RI DEFGRID1 loosescf d4 GCP(DFT/SV(P)) printgap
%output
    printlevel normal
end
* xyz 0 1
C -1.7546706292 -1.0457990605 -0.6823367777
C -1.1123813336 -0.5066232488 0.6165455225
H -1.8245161714 -0.6467198852 1.4401901019
C -0.7413223477 0.9798893899 0.5764407469
H -1.6196392157 1.5800506037 0.3140322777
C 0.3787066835 1.2334049453 -0.4502365198
H 0.706326318 2.2818560832 -0.3440073365
C 1.5903209424 0.3520984719 -0.095748077
H 2.2651007435 0.2788837829 -0.9584786711
C 1.1999435154 -1.1048709114 0.2545841845
H 1.991703032 -1.504506026 0.9108195694
O 0.0333567533 -1.2513307519 1.0245130649
O 1.1509909143 -1.8239229421 -0.9435124752
O 2.3315774124 0.9389420915 0.938149677
O -0.1353111176 1.0220149171 -1.7410922146
O -0.2888744169 1.3872300146 1.855248043
O -2.703965587 -0.1658203674 -1.2175931255
H -2.2830503879 -1.9730488414 -0.4437961703
H -0.9716146768 -1.2621468702 -1.4137975284
H 0.9351017204 -2.743647755 -0.7480491246
H 1.7073404398 1.2877774294 1.5952363188
H 0.5959524842 0.9594486468 -2.3654748126
H -0.2019881064 0.598167907 2.4072428143
H -2.2199335692 0.5387383284 -1.6687053949
*
