! M062X DEF2-TZVP FREQ
* xyzfile 0 1 vacuum_censo.xyz
