! r2scan-3c def2/J RI DEFGRID2 scfconv6 printgap
%output
    printlevel normal
end
* xyz 0 1
C 1.9045958038 -1.454193676 -6.18689e-05
C 2.5836930639 -0.2362803955 0.0002517177
C 1.8937540003 0.9529118733 0.0002540712
C 0.4925009129 0.978129528 -7.10837e-05
C -0.1853994538 -0.2591726582 -0.0004070526
C 0.5321046889 -1.4611398406 -0.0003874914
N -1.6047933259 -0.3313097894 -0.0001330914
O -2.2368099838 0.7251026068 -4.01135e-05
O -2.1353337643 -1.4193549442 0.0005150981
O -0.1105285676 2.1620046936 -1.49817e-05
H 2.4526958395 -2.382363506 -9.09572e-05
H 3.6628119558 -0.2249252335 0.0004231565
H 2.4056309376 1.9018106797 0.0004317126
H -0.0279225883 -2.3838023361 -0.000683939
H -1.0882114852 2.0282812946 -0.0005070663
*
