! r2scan-3c def2/J RI DEFGRID2 scfconv6 printgap
%output
    printlevel normal
end
* xyz 0 1
C -1.0186294319 -1.8020751375 -6.3708e-06
C 0.3524325964 -1.6178273377 5.7522e-06
C 0.8739400305 -0.325884851 1.30059e-05
C 0.0133066187 0.77120394 6.463e-06
C -1.359814284 0.58184707 -2.7726e-06
C -1.8735007578 -0.7155611335 -9.563e-06
O -2.2347438382 1.6168396968 4.9997e-06
C 2.3237158973 -0.1012218658 3.11976e-05
O 2.8617615209 0.9770467321 -3.03942e-05
H -1.4293458993 -2.800336243 -5.76003e-05
H 1.0203706235 -2.4660785648 -2.52146e-05
H 0.4420884232 1.7643667776 1.83506e-05
H -2.9440628947 -0.8453018964 -2.5389e-05
H -1.7563058969 2.4553155147 1.47191e-05
H 2.9193236057 -1.0359247423 2.8833e-05
*
