! pbe def2-sv(p) def2/J RI DEFGRID1 loosescf d4 GCP(DFT/SV(P)) printgap
%output
    printlevel normal
end
* xyz 0 1
C -1.5776220665 0.8930540913 0.2942086111
C -1.3254612968 -0.4789424238 -0.316972047
C 0.0806933254 -1.0030114977 -0.3840218746
C 1.2642149429 -0.4830231115 -0.0937578186
C 1.6485523211 0.8664648988 0.4217781499
H -2.6513277264 1.0616201148 0.3660432832
H -1.159577473 1.6828345197 -0.3245203274
H -1.1580669871 0.9555237499 1.2949108769
H -1.9059575935 -1.2185916047 0.2463306919
H -1.7250409434 -0.4888943228 -1.3377410704
H 0.086312022 -2.0258249934 -0.7492436139
H 2.1228454475 -1.1318478939 -0.2335267343
H 0.8480049253 1.5913655798 0.3624383941
H 2.4991406626 1.2397825824 -0.1483244633
H 1.9666552023 0.782446349 1.4622639434
*
