! r2SCAN-3c DEF2-TZVP FREQ
* xyzfile 0 1 vacuum_censo.xyz
