! r2scan-3c def2/J RI DEFGRID2 scfconv6 printgap
%output
    printlevel normal
end
* xyz 0 1
C -2.6892093631 -0.9672949944 -0.0012252917
S -1.8224513693 0.6280071863 0.000489295
C -0.1094158423 0.1895499943 0.0004333852
C 0.7950934902 1.2489063663 -0.0002227788
C 2.1525023122 1.0016806408 -0.0005681645
C 2.6240765092 -0.3023153567 -0.0003570305
C 1.7244302045 -1.3526881545 0.0003045198
C 0.3599935249 -1.1157137992 0.0007605325
H -2.4385253975 -1.5262784704 -0.8981454221
H -3.7471278161 -0.7235590441 -0.0032021233
H -2.4418591398 -1.5265263989 0.8964965866
H 0.4169545282 2.2601002347 -0.0003369836
H 2.8461773306 1.8293453068 -0.0009306038
H 3.6859218134 -0.4967815588 -0.0007497813
H 2.0815310858 -2.3723455383 0.0004438111
H -0.3190276641 -1.9534595654 0.0012858705
*
