! pbe def2-sv(p) def2/J RI DEFGRID1 loosescf d4 GCP(DFT/SV(P)) printgap
%output
    printlevel normal
end
* xyz 0 1
C -2.5000744281 -0.7527562195 -0.0208140417
C -1.115928021 -0.499502576 0.5962571833
H -1.1283066438 -0.8505409253 1.6405776367
C -0.7182812166 1.0042009396 0.6146284856
H -1.5979497343 1.6136023564 0.3686924327
C 0.3765506807 1.2520939408 -0.4396895778
H 0.6952075864 2.298855292 -0.3873538066
C 1.6010703615 0.3671886083 -0.1173059938
H 2.2284499151 0.3153267973 -1.0190059936
C 1.1388437401 -1.0713354197 0.2530273393
H 1.229022954 -1.1973947227 1.3477910308
O -0.1892550585 -1.2755026873 -0.1491325861
O 1.9315037897 -2.0451427523 -0.3314486035
O 2.3074743124 0.9632999344 0.9495982282
O -0.0855143196 1.0425062379 -1.7422188887
O -0.3133066804 1.4139029757 1.8932399037
O -2.6040447761 -0.3492036368 -1.3581746092
H -3.2542930607 -0.2626244274 0.6088689445
H -2.6828089323 -1.8290542925 -0.0279793182
H 1.5634445556 -2.2487136963 -1.2000635629
H 3.1212553367 0.4697581968 1.1023617616
H -0.4389390214 0.139624749 -1.8063167196
H 0.6510807346 1.3404334599 1.9566515154
H -2.4913978957 0.607709758 -1.4266149007
*
