! pbe def2-sv(p) def2/J RI DEFGRID1 loosescf d4 GCP(DFT/SV(P)) printgap
%output
    printlevel normal
end
* xyz 0 1
C -2.4722976036 -0.8094480994 0.0035780562
C -1.093140146 -0.5189113361 0.5945257198
H -1.0838331279 -0.8438663001 1.6483272894
C -0.7453173198 0.9980380815 0.5706672549
H -1.6322227081 1.5586744805 0.2555464886
C 0.3841398969 1.253095831 -0.4374915999
H 0.7082601705 2.2980703866 -0.3466539843
C 1.6029439851 0.3707144551 -0.0756635335
H 2.272498512 0.3552872329 -0.9471958189
C 1.1605446824 -1.0860684237 0.2342960458
H 1.2777423047 -1.2653356927 1.3194766622
O -0.1727545967 -1.2980766004 -0.1460064798
O 1.9472174081 -2.0252991929 -0.410336882
O 2.2476550418 0.9517780103 1.0399702181
O -0.0112925221 1.0538478469 -1.7627483749
O -0.4135700543 1.4629413512 1.8519187968
O -2.5257776672 -0.2686129202 -1.2988289499
H -3.236960274 -0.3575560901 0.6478577748
H -2.6133422996 -1.8965103895 -0.0239797966
H 1.628309462 -2.1008754041 -1.3184497906
H 3.0713814119 0.4801629945 1.2065607587
H -0.7217230662 0.3932805554 -1.7843099825
H 0.5439690293 1.3748484223 1.9732476452
H -3.3618980661 -0.5087882882 -1.7103570224
*
