! pbe def2-sv(p) def2/J RI DEFGRID1 loosescf d4 GCP(DFT/SV(P)) printgap
%output
    printlevel normal
end
* xyz 0 1
C -3.2679899817 -0.3847057738 -0.4459415543
C -2.2146751991 0.09433203 0.5498495928
H -2.6902336557 0.1937663314 1.5317660952
C -1.6538606393 1.4609150698 0.1237688497
C -0.1796126536 1.6016326051 0.4891306213
C 0.6401556528 0.6118486544 -0.3392130069
H 0.6609532996 0.9647513076 -1.3775012734
C -0.019025967 -0.753885219 -0.3643296115
O 0.287655273 -1.6133242387 -1.1547293488
C -1.0889285196 -0.9493251415 0.6793939842
C 2.1139110644 0.5140298539 0.126493504
C 2.2680910034 -0.3093139822 1.4037393654
C 2.9848392039 -0.0747117279 -0.9800707687
H -3.7437709936 -1.2978881351 -0.0954025554
H -4.0375812748 0.3730575147 -0.577653076
H -2.809536997 -0.5862155029 -1.4118470333
H -1.74981538 1.5687209605 -0.9594917712
H -2.2363471012 2.2595971264 0.5858413376
H 0.1625484236 2.6173886617 0.2794386372
H -0.0452990282 1.4254149171 1.5572031575
H -1.4977203867 -1.9572309143 0.594773042
H -0.6129695286 -0.8530866881 1.6568662416
H 2.4511239993 1.5375006567 0.3323163973
H 1.9896620766 -1.3455599228 1.2244129402
H 1.6548886097 0.0857214137 2.2106287675
H 3.3047474711 -0.2886967607 1.7330202073
H 2.9768715433 0.5658777865 -1.8592980314
H 2.6140694354 -1.0555529148 -1.2663278522
H 4.0126447413 -0.1769036497 -0.6390964553
*
