! pbe def2-sv(p) def2/J RI DEFGRID1 loosescf d4 GCP(DFT/SV(P)) printgap
%output
    printlevel normal
end
* xyz 0 1
C 1.315624563 -1.0485077991 -0.8696583976
C 0.6626293289 -0.3781402453 0.3398529913
C 1.4885154026 0.825641587 0.7992059914
C -0.7258632249 0.1120511323 -0.0539885331
O -0.900740322 0.8693623787 -0.9736607771
C -1.8531457422 -0.4158011668 0.7954894375
H 2.3330991385 -1.3498834201 -0.6319654923
H 0.752787707 -1.9300707712 -1.1700178789
H 1.3397576325 -0.353393749 -1.7053231071
H 0.5820946784 -1.0979571881 1.1595742355
H 1.5314434354 1.5662732921 0.0043766808
H 2.5012506041 0.5159023579 1.046531512
H 1.0418426816 1.2868075585 1.6778709257
H -2.8041702559 -0.0085492484 0.4631523049
H -1.6816356031 -0.1457199972 1.8355358316
H -1.8774349806 -1.501809684 0.729383399
*
