! r2scan-3c def2/J RI DEFGRID2 scfconv6 printgap
%output
    printlevel normal
end
* xyz 0 1
C 2.7580835027 0.3561655074 0.644665241
C 1.9333812853 -0.2693569992 -0.4953308515
C 0.4570756851 -0.120446201 -0.2643726547
C -0.1495742433 1.134622335 -0.2580139849
C -1.5093250662 1.218911381 -0.0218832616
C -2.223016282 0.0503003236 0.2005242102
C -1.5300394949 -1.1484560208 0.1704506742
N -0.2305272102 -1.2341370007 -0.0551293576
H 2.1056148818 0.790719756 1.3987691128
H 3.412839015 1.1407420206 0.2743825978
H 3.3735745965 -0.3944428486 1.1319792224
H 2.149815053 -1.3332951212 -0.5832146668
H 2.1890830961 0.2083554718 -1.4433055016
H 0.4394310409 2.0217204156 -0.4373386163
H -2.0072485742 2.1784444795 -0.0125886393
H -3.285166546 0.0712367488 0.3890522127
H -2.0352514286 -2.0920892451 0.3339276064
*
