! pbe def2-sv(p) def2/J RI DEFGRID1 loosescf d4 GCP(DFT/SV(P)) printgap
%output
    printlevel normal
end
* xyz 0 1
C -2.6712198368 -1.6858358217 0.8311883057
C -2.3231812564 -1.0078354746 -0.4961659901
C -1.2962850407 0.0722892099 -0.2939598886
C -1.7080019852 1.3769682864 -0.1888092594
C -0.8017444434 2.4208042894 0.0397498427
C 0.5305838329 2.1533994431 0.1667643667
C 1.0051462847 0.8293778208 0.067435101
C 0.0866285185 -0.2311195264 -0.1658686332
C 0.6021393498 -1.5427455515 -0.26124079
C 1.9397443525 -1.7916179593 -0.1282489595
C 2.840301342 -0.7428793232 0.1061733922
C 2.3794992879 0.5390972045 0.1990709038
H -1.7873340408 -2.1333161981 1.2794389794
H -3.4160808898 -2.463523136 0.6768852052
H -3.0724886297 -0.9554015792 1.5302610037
H -3.2295622302 -0.5645389261 -0.9141295574
H -1.963238531 -1.7527748451 -1.2078117485
H -2.759167575 1.6115255071 -0.2847783167
H -1.1689198844 3.4341782679 0.1144905113
H 1.2408578143 2.9481457693 0.3454171964
H -0.0684572057 -2.3678220773 -0.4440655831
H 2.3122565563 -2.803160942 -0.2043867796
H 3.8940912105 -0.9573155889 0.2092442316
H 3.063241754 1.3575903168 0.3760717583
*
