! pbe def2-sv(p) def2/J RI DEFGRID1 loosescf d4 GCP(DFT/SV(P)) printgap
%output
    printlevel normal
end
* xyz 0 1
C -2.1394320302 -1.3188004329 -0.0040919436
C -0.9346275384 -0.5415955863 0.5550684942
H -1.2108853841 -0.1578792776 1.5471402839
C -0.5896250901 0.6485781579 -0.3452494178
H -0.5065704524 0.3086963303 -1.3912329444
C 0.7519609413 1.2738251632 0.0675239853
H 0.6339314074 1.7362482104 1.0555014624
C 1.8713065105 0.2100350455 0.1522623708
H 2.6197947491 0.4022878309 -0.6231050462
C 1.29645275 -1.203858439 -0.0615950383
H 2.0328329018 -1.9345685534 0.3105519446
O 0.1714606494 -1.4243585228 0.7413133205
O 1.0515850623 -1.3960534799 -1.4228382953
O 2.5586699698 0.2616715636 1.3714347983
O 1.0544323715 2.3421191584 -0.7958478115
O -1.6213393108 1.6045762653 -0.2462590845
O -3.3384986206 -0.6217157576 0.1658481616
H -2.2369610548 -2.2605499264 0.5422380892
H -1.9610323177 -1.5456055302 -1.067856349
H 0.713128203 -2.2897951751 -1.5576460914
H 1.9772051435 -0.0650164113 2.0698907048
H 1.2879052517 1.9902971955 -1.6636202254
H -1.2474621895 2.4582562792 -0.5061628576
H -3.1895726048 0.298669992 -0.0943612834
*
