! r2scan-3c def2/J RI DEFGRID2 scfconv6 printgap
%output
    printlevel normal
end
* xyz 0 1
C -2.292219761 0.1994656075 0.2979113181
C -0.9570913767 0.3114940371 -0.4333040909
C 0.001180097 -0.753292021 0.0039881373
C 1.3052814001 -0.5977351749 0.1732843236
C 2.0555640211 0.6813142804 -0.0451206343
H -2.1462763011 0.3057090713 1.3707721674
H -2.7524173245 -0.7681982344 0.1090781598
H -2.9771081249 0.9762574894 -0.035051262
H -1.1309831551 0.2100591783 -1.5101281141
H -0.5265296497 1.2988463258 -0.2612237228
H -0.444900676 -1.7236886212 0.1796056644
H 1.8984387782 -1.444805961 0.4898909252
H 3.1175538215 0.5402389477 0.1359720748
H 1.69471421 1.4607229193 0.6263548532
H 1.9243072868 1.036698885 -1.0666488549
*
