! pbe def2-sv(p) def2/J RI DEFGRID1 loosescf d4 GCP(DFT/SV(P)) printgap
%output
    printlevel normal
end
* xyz 0 1
C -2.4016686391 -0.7124485477 -0.0164034651
C -0.9730281334 -0.2927376455 0.3489346149
H -0.9439224226 0.0182404423 1.404329113
C -0.5082458618 0.8874244175 -0.5089290883
H -0.4844566569 0.5634669201 -1.563736473
C 0.9189232744 1.3227496147 -0.1030923998
H 0.8427037427 2.1125610398 0.6523948846
C 1.7011334648 0.1546925607 0.5272449322
H 2.7667785277 0.2852353163 0.2820147971
C 1.2168071253 -1.1591906367 -0.101486556
H 1.7731886275 -2.018774139 0.3149835273
O -0.1213434449 -1.4230119251 0.1728072138
O 1.4642701996 -1.0635056749 -1.4833086818
O 1.497002334 0.1728333292 1.9145652222
O 1.6038114936 1.8748484444 -1.1940442289
O -1.4249433075 1.9416237656 -0.3549977845
O -2.9447101338 -1.6604448682 0.8601431901
H -2.401472031 -1.1854099774 -1.0004798485
H -3.0152243089 0.1974262939 -0.0494317033
H 1.0480104478 -1.8199237393 -1.914945838
H 1.9223006773 -0.5951512681 2.313404808
H 1.7914303718 1.1586075869 -1.8164633255
H -1.0502612733 2.7228638251 -0.7799114708
H -2.8760205391 -1.3257047314 1.7614577641
*
