! pbe def2-sv(p) def2/J RI DEFGRID1 loosescf d4 GCP(DFT/SV(P)) printgap
%output
    printlevel normal
end
* xyz 0 1
C -2.434361156 -0.8720840962 -0.2410089589
C -1.1111810891 -0.6101963954 0.5124780074
H -1.1851435752 -1.004673487 1.5402835432
C -0.7646070368 0.8946181967 0.5886447687
H -1.6560699739 1.4809723549 0.331722291
C 0.3407313874 1.1929797834 -0.4510215102
H 0.5585320345 2.2653010874 -0.4475299407
C 1.6144546787 0.417722716 -0.0637007686
H 2.2935187904 0.3808726066 -0.9227008721
C 1.2137544848 -1.0426410568 0.2752208591
H 1.2572517458 -1.1809595454 1.3753100748
O -0.1018373529 -1.3380330544 -0.1686944604
O 2.0717761657 -1.8987692353 -0.3835432461
O 2.3206385054 1.0307087434 0.9694804203
O -0.0962496739 0.8640049673 -1.7463381819
O -0.2846553743 1.2662438686 1.8659228745
O -2.8091055746 0.1428816532 -1.1254521388
H -3.2550692515 -0.9581094926 0.4750051004
H -2.3209821187 -1.8326878819 -0.7630749843
H 1.7737617685 -2.8082484719 -0.2592411572
H 1.6965746937 1.2356777939 1.681107364
H 0.0400081964 -0.0888673426 -1.8631115463
H -1.0206606806 1.2954546109 2.4861022773
H -2.0524912677 0.3847041928 -1.6857949237
*
