! r2scan-3c def2/J RI DEFGRID2 scfconv6 printgap
%output
    printlevel normal
end
* xyz 0 1
C 1.6198567398 -9.1551e-06 -8.053e-07
Br -0.3175261986 -9.325e-07 4.3e-09
H 1.9562608769 0.9535315293 -0.3938737356
H 1.956398431 -0.1355430658 1.022613448
H 1.9564884965 -0.8178054372 -0.6287304588
*
