! pbe def2-sv(p) def2/J RI DEFGRID1 loosescf d4 GCP(DFT/SV(P)) printgap
%output
    printlevel normal
end
* xyz 0 1
C -3.3868399103 -0.0487298659 0.197870163
O -2.222454013 0.0717284263 -0.607086741
C -1.0459583131 -0.0105035258 0.0344652592
O -0.9656049089 -0.1769724116 1.2232748503
C 0.0964852594 0.1350937155 -0.94808445
C 0.9666372363 -1.1303206611 -0.9706050233
C 1.7686007961 -1.2937865657 0.316174941
C 2.6367475 -0.0643460675 0.5608218055
C 1.754866704 1.1751261921 0.6657273767
C 0.9526006893 1.366465706 -0.6170312549
H -3.4012607182 -1.0180734747 0.7002832842
H -4.2347792222 0.0458793258 -0.4752657348
H -3.4070073411 0.7381208864 0.9546274382
H -0.3608936917 0.2720110171 -1.9335128839
H 0.3339999176 -2.0060162531 -1.1332963932
H 1.653510268 -1.0513668167 -1.8172842823
H 1.0843894178 -1.4204167504 1.1556348863
H 2.3909338612 -2.1883952085 0.2446169173
H 3.2098541657 -0.1914333205 1.4808804373
H 3.3450712263 0.0562872766 -0.2634603018
H 1.0706637583 1.0563446244 1.5063263678
H 2.3672762478 2.0612094943 0.8461582764
H 0.3101078846 2.24587841 -0.5310650808
H 1.6389039798 1.5333515795 -1.4513197548
*
