! r2scan-3c def2/J RI DEFGRID2 scfconv6 printgap
%output
    printlevel normal
end
* xyz 0 1
C -2.8744521665 -0.4025818568 -0.0082827784
N -1.8117123687 0.5642538603 -0.0065761273
C -0.4796141683 0.2537247104 -0.0020466059
C -0.021945499 -1.0665521847 0.0035261181
C 1.3335238219 -1.3347436026 0.0083519104
C 2.2614003407 -0.3078714838 0.0077578134
C 1.8160370031 1.004739793 0.0022366962
C 0.4663051852 1.2851920637 -0.0026182106
H -3.8293730772 0.1176988804 -0.0130746539
H -2.8327277365 -1.0400355098 0.88151369
H -2.8261978408 -1.0445048453 -0.8945621838
H -2.0550979978 1.538664764 -0.0118290987
H -0.7258158295 -1.8838564685 0.0040990734
H 1.6678510037 -2.3626024975 0.0125665063
H 3.3185567374 -0.5257185859 0.0115188165
H 2.5285476016 1.8173110771 0.0017119036
H 0.1243768215 2.3115333154 -0.006913447
*
