! pbe def2-sv(p) def2/J RI DEFGRID1 loosescf d4 GCP(DFT/SV(P)) printgap
%output
    printlevel normal
end
* xyz 0 1
C -2.9784307934 0.604925813 0.7687236467
C -2.2722870639 0.3444674295 -0.5633741695
C -0.8520685027 -0.0861022077 -0.329465418
C -0.5392187496 -1.4252874096 -0.1404679074
C 0.7651528161 -1.8101140967 0.1177896537
C 1.7738085768 -0.8699596131 0.1931644577
C 1.4710543852 0.474596981 0.006863715
C 0.1619497144 0.8579731449 -0.251690423
O 2.4848380408 1.3813843998 0.0847339692
H -2.9783596302 -0.2959979436 1.3778755287
H -4.0082552645 0.9118745123 0.6009288687
H -2.4672672385 1.3899610171 1.3216154727
H -2.2913586254 1.255316726 -1.1653366873
H -2.8087385691 -0.4350205865 -1.1077300185
H -1.3202899331 -2.1689587817 -0.198979992
H 0.9995827086 -2.8545194852 0.2610037526
H 2.7952823698 -1.151563586 0.391979295
H -0.0685282328 1.906612054 -0.3970936254
H 2.1387331815 2.2694440412 -0.0643521956
*
