! pbe def2-sv(p) def2/J RI DEFGRID1 loosescf d4 GCP(DFT/SV(P)) printgap
%output
    printlevel normal
end
* xyz 0 1
C -2.644843749 -0.2119551075 -1.1401349164
C -1.7459114813 0.0042492038 0.0514063752
O -2.1571596437 -0.0022759577 1.1838786321
C -0.2799463778 0.2078429183 -0.2908835174
C 0.4087753487 -1.1643568479 -0.2554493843
C 1.845390312 -1.0526456277 -0.7776003378
C 2.4792630198 0.2926627635 -0.4024868169
C 1.8852131544 0.8101219521 0.9028538761
C 0.4038967251 1.1492725202 0.71182893
H -3.6157706375 -0.5810434049 -0.8206853601
H -2.7800600707 0.7419108047 -1.6480644737
H -2.1925572528 -0.9072803475 -1.8426105815
H -0.2040735844 0.6035623698 -1.3076151615
H 0.4026327496 -1.5220658314 0.7749304839
H -0.1465617579 -1.8872388677 -0.8566409659
H 2.4339574531 -1.8709889294 -0.3591851481
H 1.8534515803 -1.166192801 -1.8634932683
H 3.5604390311 0.1793235245 -0.3093118318
H 2.2941682144 1.0276735049 -1.1885481924
H 2.0040426111 0.0475801233 1.6740684515
H 2.4225878138 1.699396005 1.2358470768
H -0.1179441021 1.0753756791 1.6678994957
H 0.3019260447 2.1767413684 0.3563044408
*
