! r2scan-3c def2/J RI DEFGRID2 scfconv7 ENGRAD tightSCF miniprint
* xyzfile 0 1 xtb_opt.xyz
