! r2scan-3c def2/J RI DEFGRID2 scfconv6 printgap
%output
    printlevel normal
end
* xyz 0 1
C -2.7575716995 -0.7845677201 0.0004864528
O -1.794817439 0.2380886527 -0.0004576896
C -0.4637115754 -0.1233360376 -0.0002289271
C 0.0225412495 -1.4178853591 -0.0001998033
C 1.392395211 -1.6427347003 6.0437e-06
C 2.2749542572 -0.5813183904 0.0001175646
C 1.7970261551 0.7191221103 0.0001153535
C 0.4340227446 0.9581557562 -1.63019e-05
O -0.0327780741 2.23462034 9.55357e-05
H -2.6750804177 -1.410943703 0.8942897702
H -2.6761920828 -1.4116230143 -0.893076896
H -3.7233330599 -0.2811672842 0.0008952239
H -0.6518831272 -2.2596474747 -0.0002510542
H 1.759615887 -2.6576011884 6.50108e-05
H 3.3392051014 -0.7591065885 0.0002082131
H 2.4663964383 1.5641876282 0.0002883143
H -0.9989040315 2.1960683503 -1.10281e-05
*
