! r2scan-3c def2/J RI DEFGRID2 scfconv6 printgap
%output
    printlevel normal
end
* xyz 0 1
C 0.6538492467 1.04903e-05 -0.3856602099
C -0.6538743297 7.62525e-05 0.3855696736
Cl -1.5882254144 1.4497186082 -0.0332867412
Cl -1.588892988 -1.4492001151 -0.0332565185
Cl 1.5888212462 1.4489770201 0.0333092498
Cl 1.5883050229 -1.4495272307 0.0332676441
H 0.487606128 -8.48724e-05 -1.465467795
H -0.4875839302 0.0001668378 1.4653636149
*
