! r2scan-3c def2/J RI DEFGRID2 scfconv6 printgap
%output
    printlevel normal
end
* xyz 0 1
C -3.5803370958 0.1954373816 -0.382723769
O -2.2040565225 0.2047814551 -0.7411084042
C -1.3101712212 -0.1127864113 0.2046291299
O -1.6020147093 -0.4167999407 1.3313735956
C 0.1003415306 -0.0202294072 -0.3340177607
C 0.8847140724 -1.2831016881 0.0310703284
C 2.3332462492 -1.1682011313 -0.4312658421
C 2.9975469314 0.0598773057 0.182633948
C 2.2217165085 1.3202499372 -0.1857150491
C 0.7743622748 1.2128708394 0.2825292622
H -4.1250761154 -0.3050477361 -1.1816993561
H -3.930155346 1.2240094757 -0.2813531352
H -3.7132052166 -0.3332803478 0.5629410382
H 0.0489696904 0.0950063079 -1.4202490494
H 0.847120874 -1.4139179942 1.1140963804
H 0.413121545 -2.1542674646 -0.4289576994
H 2.8799943706 -2.0693760062 -0.1473532269
H 2.3611455902 -1.0889285435 -1.5206949936
H 3.020119757 -0.0462983004 1.2692318294
H 4.0281711158 0.141056324 -0.1687366374
H 2.6892656184 2.1942890683 0.2718596151
H 2.2435630196 1.4568904864 -1.2694431133
H 0.7431434125 1.1205139683 1.3701623556
H 0.2219588563 2.1125002428 0.0020281027
*
