! pbe def2-sv(p) def2/J RI DEFGRID1 loosescf d4 GCP(DFT/SV(P)) printgap
%output
    printlevel normal
end
* xyz 0 1
C -3.2761734615 -0.3942458729 0.2248501313
C -1.8950138543 -0.3345605741 -0.4349525127
H -2.0370893774 -0.1142036771 -1.4988326747
C -1.1262079892 -1.6462582852 -0.2826277469
C 0.3492531636 -1.4025773504 -0.5786558347
C 0.9929677853 -0.5289801951 0.5154585868
H 1.3491556013 -1.1854472225 1.3168100526
C -0.0456764352 0.4310237435 1.1320362907
C -1.1254488504 0.8311485761 0.161499302
O -1.3950364512 1.9781936308 -0.0967732184
C 2.1895691306 0.196237256 -0.0594987654
C 2.0917094552 1.3595844211 -0.6815744362
C 3.4943865282 -0.5271667364 0.0885804195
H -3.7952598878 0.5517187824 0.0926621804
H -3.870915174 -1.1873997041 -0.2225639071
H -3.1823129224 -0.5915325052 1.2912242928
H -1.240223265 -2.0399029518 0.7297007025
H -1.53259391 -2.3891937282 -0.9717109619
H 0.885348824 -2.3498483744 -0.6547583034
H 0.4342486475 -0.8933527824 -1.5418664835
H -0.5489696165 -0.0752441353 1.9596101358
H 0.4470965437 1.3211875044 1.5243299749
H 2.9551537387 1.8446168276 -1.1047225471
H 1.1569304067 1.8799149925 -0.7931691716
H 3.7518847321 -0.6281512542 1.1429706223
H 3.421140024 -1.5291908165 -0.3329348517
H 4.2959556975 0.0061329991 -0.4148798781
*
