! r2scan-3c def2/J RI DEFGRID2 scfconv6 printgap
%output
    printlevel normal
end
* xyz 0 1
C 1.5130079825 0.0284858958 0.5144905333
C 0.7211338355 0.0960366525 -0.5492624779
C -0.7211404731 -0.0956212025 -0.5493507377
C -1.5129818224 -0.0289253429 0.5145237756
H 2.5759106084 0.1812274729 0.4383757026
H 1.1333395015 -0.1923164455 1.4975377698
H 1.1575194034 0.2921426106 -1.5210119284
H -1.1577129988 -0.2900646374 -1.521377206
H -2.5759475549 -0.181149793 0.4381278077
H -1.1333416059 0.1904467627 1.4977480613
*
