! pbe def2-sv(p) def2/J RI DEFGRID1 loosescf d4 GCP(DFT/SV(P)) printgap
%output
    printlevel normal
end
* xyz 0 1
C -1.8077067519 -0.8032116325 0.6816152749
C -0.9475661233 -0.2004467795 -0.4265553724
H -0.9404707419 -0.8726447945 -1.301776261
C 0.5282180882 -0.0602461113 0.0169649582
F 0.9690826906 1.192337838 -0.0121405593
F 0.7456111269 -0.5137059116 1.2615242171
F 1.3400598325 -0.7785167287 -0.7782421774
O -1.3684423142 1.0842641338 -0.7996789574
H -1.4204642969 -1.7734704434 0.9792726834
H -2.8267351897 -0.9283258936 0.3217450897
H -1.8148757013 -0.1446657822 1.5471771976
H -2.3158594031 1.0686783734 -0.9747760781
*
