! pbe def2-sv(p) def2/J RI DEFGRID1 loosescf d4 GCP(DFT/SV(P)) printgap
%output
    printlevel normal
end
* xyz 0 1
C -3.2389216943 0.8242746648 -0.7316505122
N -2.0123615286 0.1255899249 -0.4269252325
C -1.4601316765 -0.6602785526 -1.5016883784
C -1.6079102292 0.0618938544 0.8690031854
O -2.2897304006 0.4493262077 1.7983307588
N -0.3703049362 -0.5334297944 1.1010182466
C 0.8336032342 -0.2766104594 0.4405537907
C 0.9919527548 0.8030595236 -0.4252143999
C 2.2012434178 1.0092732301 -1.0627014918
C 3.2694245582 0.1574985926 -0.8399964993
C 3.1246996639 -0.9011586923 0.041616469
C 1.9190276336 -1.1186412638 0.6790697823
H -3.5564168378 1.3631652369 0.1581972916
H -4.026529828 0.1235447522 -1.0223299773
H -3.0705279248 1.5275875942 -1.5500968334
H -2.275308419 -1.1618499969 -2.0296463916
H -0.781084254 -1.4152726112 -1.1142643339
H -0.9177709744 -0.034543863 -2.2168926298
H -0.2696934508 -0.8298979525 2.0631776936
H 0.17481682 1.4918718834 -0.574758825
H 2.312098078 1.8514460954 -1.7300502915
H 4.2114691036 0.3239998182 -1.3396289713
H 3.9564537408 -1.5626683751 0.2340840118
H 1.8071254866 -1.9423713854 1.3693627193
*
