! r2scan-3c def2/J RI DEFGRID2 scfconv6 printgap
%output
    printlevel normal
end
* xyz 0 1
C 2.8634188494 -0.7326800717 -0.1142027858
C 1.9748713367 0.4894487344 0.0875496045
C 0.4972455729 0.2123825623 0.0458962627
C -0.0597009774 -1.0460168659 0.2359996628
C -1.4374720762 -1.1940248467 0.1937257908
C -2.2172739259 -0.0730072764 -0.0355991462
N -1.7042812327 1.1326348359 -0.217293593
C -0.3927273728 1.2627430547 -0.1779531196
H 2.6015524613 -1.2493355214 -1.0351761404
H 2.7716288922 -1.427973575 0.7168377651
H 3.9043361007 -0.4239096906 -0.1788101673
H 2.2045859393 1.2328781488 -0.6805831527
H 2.2095359971 0.9477648294 1.0541264864
H 0.5659119227 -1.9074984718 0.4146134702
H -1.8928846955 -2.1622161493 0.3365992976
H -3.2967586953 -0.1346268353 -0.0776512846
H -0.021864578 2.2687538135 -0.3356677933
*
