! pbe def2-sv(p) def2/J RI DEFGRID1 loosescf d4 GCP(DFT/SV(P)) printgap
%output
    printlevel normal
end
* xyz 0 1
C -1.7218956007 -1.0572267154 -0.6833333338
C -1.0589605889 -0.5143702478 0.5976870137
H -1.7447901279 -0.6520969121 1.4454429568
C -0.7467138136 0.988267967 0.4961297711
H -1.6401252215 1.5052662139 0.1243035056
C 0.4342040161 1.2516262952 -0.4570433692
H 0.7371463318 2.3066249124 -0.3025676088
C 1.6321449762 0.3660862953 -0.066712179
H 2.334854874 0.3535731903 -0.9103746426
C 1.2406917757 -1.0977565393 0.1983497186
H 2.035771682 -1.5320892556 0.828581113
O 0.0882145203 -1.2605367205 0.9759327434
O 1.1644655114 -1.7572754409 -1.0274787362
O 2.2432230902 0.8320456839 1.1158631879
O 0.1430304245 1.0366680556 -1.8100026471
O -0.4805143879 1.5339964389 1.7615766205
O -2.8825736765 -0.334958319 -1.0171866918
H -1.9462214584 -2.1227552358 -0.5354858569
H -1.0420951594 -0.9543239598 -1.5307003822
H 0.9133037661 -2.6752605999 -0.8702363156
H 2.5738544214 1.725883785 0.9669588252
H -0.7441973853 1.3636098456 -2.0021125165
H 0.3089356788 1.0933330724 2.111536625
H -3.5371920006 -0.4493012853 -0.3186384052
*
