! r2scan-3c def2/J RI DEFGRID2 scfconv6 printgap
%output
    printlevel normal
end
* xyz 0 1
C -2.1330595799 -0.8737171234 -0.372409038
C -1.2267573366 -0.3174521618 0.7454213026
H -1.8548857404 -0.3517421833 1.6482844304
C -0.75848197 1.1385831877 0.5938451961
H -1.5909389471 1.7789690662 0.2792057572
C 0.3982239073 1.3091012509 -0.4119451931
H 0.8270598417 2.3077612215 -0.2283407269
C 1.515683268 0.2838421463 -0.1339016609
H 2.1346361778 0.1588392188 -1.0319084946
C 1.0006964981 -1.1408712104 0.2317624687
H 1.7903548542 -1.6167399748 0.8295990136
O -0.1128464907 -1.1251904624 1.1006659487
O 0.8286996528 -1.935779626 -0.8844054379
O 2.3811267069 0.7811147748 0.8555520242
O -0.1132690556 1.2599354045 -1.7276260997
O -0.3125778012 1.5947282168 1.8560373511
O -1.5740513621 -0.9750462487 -1.653795985
H -3.0339628415 -0.2457382131 -0.3971241496
H -2.4198614906 -1.8907166839 -0.0919992039
H -0.033072866 -1.7342954282 -1.3106267637
H 1.8560220489 1.1162797825 1.5949592648
H 0.6180313805 1.3459942661 -2.350084254
H -0.1186096471 0.8202301348 2.4021285937
H -1.2455783544 -0.0960844894 -1.9230937396
*
