! r2scan-3c def2/J RI DEFGRID2 scfconv6 printgap
%output
    printlevel normal
end
* xyz 0 1
C -2.5493174317 -0.9123188709 0.2554151429
C -1.1374958383 -0.4445094678 0.6398928585
H -1.0487622449 -0.3715349827 1.7341560027
C -0.8537334679 0.9430803509 0.0408690388
H -1.1158820555 0.9149238841 -1.0319098552
C 0.6322270224 1.2991009494 0.1813151362
H 0.8613481388 1.4786989717 1.2388389903
C 1.503624138 0.1531183975 -0.3329875306
H 1.3274787817 0.0152242285 -1.4149672776
C 1.0940453374 -1.1481836648 0.3814678962
H 1.2538265897 -1.0109044804 1.473214904
O -0.251715543 -1.422455872 0.1316089523
O 1.8172704041 -2.2310240602 -0.0863754603
O 2.8702112109 0.3803209607 -0.0914081678
O 0.9411598621 2.5145265592 -0.4679936644
O -1.6544170741 1.878572731 0.7156509053
O -2.6413500451 -1.1570839401 -1.1192781772
H -3.2649806677 -0.1244624626 0.493861221
H -2.7884360019 -1.8162766424 0.8303371247
H 2.7284006518 -1.9359806119 -0.2136734856
H 3.0388514089 1.3256732178 -0.199781617
H 0.718481834 2.4366986231 -1.4049478887
H -1.3202700872 2.761685218 0.5100968909
H -1.9335351752 -1.776701448 -1.3408695042
*
