! pbe def2-sv(p) def2/J RI DEFGRID1 loosescf d4 GCP(DFT/SV(P)) printgap
%output
    printlevel normal
end
* xyz 0 1
C -1.9927962752 -0.610631183 -0.7247235089
C -1.1946442351 -0.0882029586 0.4915140008
H -1.869472568 -0.037541452 1.3539331514
C -0.6335054532 1.3254046012 0.2620204563
H -1.3766656143 1.8970373606 -0.3228659589
C 0.6979607878 1.3045827686 -0.5202846421
H 1.1651932867 2.3007430813 -0.4345720814
C 1.6698298748 0.2838805521 0.1091601869
H 2.5618372076 0.2071195153 -0.5209303408
C 0.9921078275 -1.0964654255 0.1852192195
H 1.6099128725 -1.7715362774 0.7915020021
O -0.2102056323 -1.0145640158 0.917485004
O 0.8450885287 -1.6928667739 -1.0592719583
O 2.0947945508 0.7122528942 1.369019303
O 0.5138090737 0.9685240487 -1.8785720256
O -0.4640556023 1.9082751977 1.5330326421
O -2.3177275873 -1.9597691844 -0.5731622484
H -1.4276279997 -0.451990274 -1.6545329671
H -2.9368583319 -0.0638935545 -0.7939514156
H 0.6516083583 -1.012273742 -1.7212961109
H 1.3287907289 0.6985009879 1.9644359902
H 0.0199960002 1.6664043505 -2.3235909151
H -0.0579822646 2.7794327733 1.4479362289
H -1.5035715163 -2.4273079212 -0.3349383674
*
