! pbe def2-sv(p) def2/J RI DEFGRID1 loosescf d4 GCP(DFT/SV(P)) printgap
%output
    printlevel normal
end
* xyz 0 1
C -2.4759921643 -0.8216024179 -0.0210695225
C -1.1044499412 -0.5345314768 0.606702374
H -1.0981011903 -0.8751784136 1.658047428
C -0.7669193358 0.9767844045 0.5777716478
H -1.658946182 1.5349414785 0.2526862252
C 0.3722584856 1.250805771 -0.4244880151
H 0.6616175765 2.3089885725 -0.3199283434
C 1.6009973491 0.3961824154 -0.0644990777
H 2.273659886 0.3854075994 -0.9291578265
C 1.1685645143 -1.0690958567 0.2384936203
H 1.297078524 -1.2576107366 1.3176633078
O -0.1765338715 -1.2913075505 -0.1348125224
O 1.9397668883 -2.0064150996 -0.4129030715
O 2.3247155144 0.958029544 0.9903945232
O 0.0024916582 0.9616897198 -1.7457018125
O -0.330969203 1.4497634429 1.8358938435
O -2.5619965386 -0.2993641892 -1.3173950007
H -3.2687794242 -0.3496337815 0.5641197515
H -2.629688636 -1.9083531227 -0.0245319909
H 1.7551911704 -1.9444854608 -1.3586355802
H 1.7025339559 1.1870096171 1.6958475535
H -0.8303544067 1.4068790332 -1.9478336845
H -1.0531695263 1.3889901409 2.4704767787
H -1.7934850674 -0.6299745579 -1.8042525875
*
