! r2scan-3c def2/J RI DEFGRID2 scfconv6 printgap
%output
    printlevel normal
end
* xyz 0 1
C -1.7222040056 -1.2630738669 -0.139401223
C -1.0953322743 -1.2631e-05 0.4160308556
C -1.722349194 1.2630073251 -0.1394031771
Br 0.8392375344 1.43087e-05 -0.018661601
H -1.2317648059 -2.1494072621 0.2578548981
H -2.7756331633 -1.2972137473 0.1352782297
H -1.6457837162 -1.2829967603 -1.2250465105
H -1.1248912045 -6.70758e-05 1.5078535805
H -1.2319094785 2.1493490299 0.2578614419
H -2.7757005575 1.2971288949 0.1354116434
H -1.6459784696 1.2830160467 -1.2250723841
*
