! pbe def2-sv(p) def2/J RI DEFGRID1 loosescf d4 GCP(DFT/SV(P)) printgap
%output
    printlevel normal
end
* xyz 0 1
C 2.7008976196 0.1483874449 -1.1699978198
C 2.274711074 -0.3000838404 0.2299574188
H 3.1965582454 -0.491220078 0.7914841652
C 1.4476879119 -1.6018631665 0.180908085
C -0.0299476527 -1.3795587411 0.5120243074
C -0.5497799944 -0.1279960997 -0.1908556456
H -0.2410034061 -0.1833299434 -1.2419396112
C 0.1200946065 1.1171652607 0.4239552688
H -0.498896029 1.4955523185 1.244693243
C 1.5157844214 0.7941065012 0.9879213267
O 0.1479569251 2.1949670838 -0.4876221492
C -2.0842831102 0.0179065696 -0.1950176172
C -2.7208307435 -0.8900032303 -1.2467149343
C -2.7178210371 -0.2491232137 1.16863339
H 3.2058825018 1.1118112554 -1.1259810924
H 3.3936590551 -0.5751678652 -1.5962453517
H 1.8521950882 0.2274409076 -1.8454542469
H 1.5264546173 -2.0351711682 -0.8182908033
H 1.8583786542 -2.3315095891 0.88120349
H -0.5979642521 -2.254965859 0.1945723282
H -0.1587756387 -1.2716294523 1.5893866596
H 2.1006555456 1.7167638808 0.9905079687
H 1.4081093566 0.4770451551 2.0264181016
H 0.7256804569 1.9573587267 -1.2214837914
H -2.2937773948 1.0572537678 -0.4742036449
H -3.7983768355 -0.7439297776 -1.266744418
H -2.5259714556 -1.9370087895 -1.0248528683
H -2.3297018218 -0.6695611829 -2.2377182591
H -2.6288327591 -1.2987519611 1.4378498194
H -3.7752984381 0.0042834344 1.1397625864
H -2.2494158278 0.349136966 1.9460500171
*
