! pbe def2-sv(p) def2/J RI DEFGRID1 loosescf d4 GCP(DFT/SV(P)) printgap
%output
    printlevel normal
end
* xyz 0 1
C 2.3961298844 -0.6569425769 -0.1037649546
C 1.0808691764 -0.1222098347 0.4477314799
H 1.1053577251 -0.1717654162 1.5492669204
C 0.7629222847 1.3094720486 -0.0002401986
C -0.7612914811 1.3113453962 -0.0019362774
C -1.0839961035 -0.1197856596 -0.4491091992
H -1.1190466704 -0.1684551858 -1.550253798
O 0.0003132206 -0.9275398698 -0.0070627487
C -2.3949560435 -0.6534588752 0.1139558461
H 3.2230349283 -0.0481773662 0.2528859697
H 2.5415155858 -1.6831578984 0.2214283389
H 2.3789374528 -0.638610153 -1.1907266659
H 1.1936724355 2.0541932895 0.6653302853
H 1.1437279839 1.4727991648 -1.0099059627
H -1.1414059874 1.4767703396 1.0076482071
H -1.1901767894 2.0568116858 -0.6678834706
H -2.543284182 -1.6799873359 -0.2091815586
H -3.2246587095 -0.0446916036 -0.236388789
H -2.3688052394 -0.6341799748 1.2008060057
*
