! pbe def2-sv(p) def2/J RI DEFGRID1 loosescf d4 GCP(DFT/SV(P)) printgap
%output
    printlevel normal
end
* xyz 0 1
C -1.7942557833 -1.0433360061 -0.691388589
C -1.02682288 -0.4624681596 0.5072793872
H -1.7005653934 -0.5195208931 1.3704567815
C -0.6961605767 1.0254848533 0.305500915
H -1.5238736271 1.4739040374 -0.2614342455
C 0.613629121 1.2398332953 -0.4801947845
H 0.9073271747 2.2969613385 -0.3639392358
C 1.735314671 0.3622445545 0.1169960031
H 2.6357735008 0.4316960094 -0.5062869043
C 1.2674997759 -1.1100999796 0.1365237491
H 1.9964902439 -1.7203650135 0.6828122403
O 0.0874089299 -1.2433833219 0.8890791165
O 1.1902081408 -1.6421539113 -1.145711746
O 2.0987553179 0.808603571 1.3902223126
O 0.3810063882 0.9483357505 -1.8452895802
O -0.5966469565 1.6024900542 1.5891864665
O -3.1247964615 -0.5831736997 -0.5949841795
H -1.7432110773 -2.1372911621 -0.6254416532
H -1.3535228597 -0.7163950917 -1.6414305935
H 0.6931517447 -1.0272647587 -1.7076900064
H 1.3228494124 0.7223348356 1.9669984868
H 1.1498576517 1.2235268691 -2.358394209
H -0.4908625969 2.5574236445 1.5099013351
H -3.6460556675 -0.9892082379 -1.2953474038
*
