! pbe def2-sv(p) def2/J RI DEFGRID1 loosescf d4 GCP(DFT/SV(P)) printgap
%output
    printlevel normal
end
* xyz 0 1
C 1.5868707626 0.4797262777 0.1202968128
C 0.7830100485 -0.4947968798 -0.2648630764
C -0.6458750612 -0.6249377704 0.2003849168
O -1.4346351879 0.5074572857 -0.0943698716
H 2.5980920582 0.5604719209 -0.2388168965
H 1.2742851309 1.2419912533 0.8180886237
H 1.1303294972 -1.2445667807 -0.960838232
H -0.6578974131 -0.8180680722 1.2863251869
H -1.1385049043 -1.4600341707 -0.3005486032
H -0.9776416413 1.2917193566 0.2286339336
*
