! r2scan-3c def2/J RI DEFGRID2 scfconv6 printgap
%output
    printlevel normal
end
* xyz 0 1
C -2.2615183777 -0.9732334078 -0.1722452637
O -1.0118313506 -0.6383517437 0.4217032847
C -0.4617244517 0.5215708793 0.0758596523
O -0.9397222746 1.320680368 -0.6779330146
C 0.8911998906 0.6882385233 0.7658237883
C 1.8588336517 -0.1336645319 0.0832166747
N 2.6159512322 -0.7888867525 -0.4658620734
H -2.3416769329 -0.5200327887 -1.1615757017
H -3.0750430993 -0.6110030096 0.4589502529
H -2.2940770546 -2.0581531081 -0.2404131756
H 0.8182025226 0.3602097072 1.8046982667
H 1.1986365275 1.7344082137 0.7104951567
*
