! r2scan-3c def2/J RI DEFGRID2 scfconv6 printgap
%output
    printlevel normal
end
* xyz 0 1
C -2.186589945 -0.9261425601 -0.1676099242
C -1.132774104 -0.344105534 0.8014737532
H -1.6092021257 -0.3490076819 1.793500527
C -0.7453694018 1.1188392229 0.4881209365
H -1.6106967246 1.612604504 0.0172142364
C 0.4536685757 1.2454104654 -0.4680770765
H 0.8031424474 2.2855417927 -0.4174741918
C 1.6070571759 0.3371305313 0.0147831906
H 2.4082189408 0.3515278248 -0.7345456414
C 1.0866378719 -1.1086681238 0.1241885686
H 1.8331463777 -1.7403139786 0.6230156814
O -0.0252036635 -1.2152632529 0.9755347273
O 0.8414112472 -1.6491083088 -1.1515232701
O 2.1742820676 0.7831696497 1.2092127649
O 0.1167076943 0.9750471314 -1.8058029099
O -0.382814233 1.8054860887 1.6700570754
O -1.7718357786 -0.9857814126 -1.5062981594
H -3.0777606327 -0.2934869489 -0.145788953
H -2.4527674305 -1.9259199361 0.1948231257
H 0.90488162 -0.9378665504 -1.8104976959
H 1.4615102227 1.0618797674 1.8037162625
H -0.7008366892 0.4350961591 -1.8437450403
H -1.1252210392 1.8170849324 2.2843078965
H -1.0229821054 -1.6127895751 -1.5487547966
*
