! pbe def2-sv(p) def2/J RI DEFGRID1 loosescf d4 GCP(DFT/SV(P)) printgap
%output
    printlevel normal
end
* xyz 0 1
C -2.9715334454 1.2534528487 0.0001543158
C -1.7469384891 0.3875763247 -0.0001048375
C -1.8362066894 -0.9911068533 -0.0001772083
C -0.6861436959 -1.7672006501 -9.94457e-05
C 0.5649914547 -1.1815008648 3.05775e-05
C 0.6716459539 0.2228112643 7.34173e-05
C -0.4859895166 0.9814896519 3.33814e-05
O 1.9399047251 0.7212164516 0.0001305526
C 2.1084874167 2.1147577745 -0.000185624
O 1.7156044871 -1.9127301087 8.41756e-05
H -3.8736561246 0.6475704927 -0.0040688549
H -2.9867331682 1.8919992885 0.8827122221
H -2.9826911109 1.8985384816 -0.8776530694
H -2.8020466663 -1.4733970993 -0.0003042571
H -0.7633468047 -2.8466968314 -0.0001689261
H -0.428102717 2.0588914209 0.0001087517
H 3.1847750304 2.2802896407 -0.0004415884
H 1.6728998163 2.5752713621 0.8933627792
H 1.6725300028 2.5749052867 -0.8937396795
H 1.4947719812 -2.8518143682 6.62108e-05
*
