! r2scan-3c def2/J RI DEFGRID2 scfconv6 printgap
%output
    printlevel normal
end
* xyz 0 1
C -2.8612996143 -0.3959404333 0.1151608411
N -1.8191240136 0.5679034119 -0.1348810127
C -0.4815534324 0.2489993588 -0.039026596
C -0.0208551722 -1.0688440613 -0.0467278173
C 1.3351468931 -1.3350984729 -0.013546915
C 2.2599067205 -0.3068299673 0.0306607909
C 1.8117338215 1.004628764 0.0417389302
C 0.4613066067 1.2811112936 0.0098051189
H -3.8260380788 0.0977062972 0.0164888194
H -2.7959267904 -0.8436115421 1.1155391045
H -2.8108089196 -1.194750418 -0.6262785057
H -2.0382393892 1.5137068507 0.1391593649
H -0.7203590395 -1.8891940291 -0.0784772717
H 1.6713570321 -2.3622496267 -0.0194732392
H 3.3171610691 -0.5227075256 0.0585034436
H 2.5215939509 1.8185243905 0.0796984198
H 0.1170635218 2.3065970463 0.0206508974
*
